\* Problem: Unknown *\

Maximize
 obj: + xp_0_0 + xp_0_1 + xp_1_0 + xp_1_1 + xp_1_2 + xp_1_3 + xp_1_4
 + xp_2_0 + xp_2_1 + xp_2_2 + xp_2_3 + xp_2_4 + xp_3_0 + xp_3_1 + xp_3_2
 + xp_3_3 + xp_3_4 + xp_4_0 + xp_5_0 + xp_5_1 + xp_6_0 + xp_6_1 + xp_6_2
 + xp_7_0 + xp_8_0 + xp_9_0 + xp_9_1 + xp_10_0 + xp_10_1 + xp_10_2
 + xp_10_3 + xp_10_4 + xp_11_0 + xp_12_0 + xp_13_0 + xp_13_1 + xp_13_2
 + xp_14_0 + xp_14_1 + xp_14_2 + xp_14_3 + xp_14_4 + xp_15_0 + xp_15_1
 + xp_15_2 + xp_16_0 + xp_17_0 + xp_17_1 + xp_17_2 + xp_18_0 + xp_18_1
 + xp_18_2 + xp_19_0 + xp_19_1 + xp_19_2 + xp_19_3 + xp_19_4 + xp_19_5
 + xp_20_0 + xp_20_1 + xp_20_2 + xp_20_3 + xp_20_4 + xp_20_5 + xp_21_0
 + xp_21_1 + xp_21_2 + xp_21_3

Subject To
 r_1: + xp_20_0 <= 0.899493243243243
 r_2: + xp_10_0 + xp_2_1 <= 0.8875
 r_3: + xp_20_5 + xp_10_1 <= 0.878255208333333
 r_4: + xp_20_2 + xp_19_3 + xp_18_1 + xp_10_3 <= 0.878255208333333
 r_5: + xp_21_3 + xp_20_4 + xp_10_4 + xp_3_2 <= 0.878255208333333
 r_6: + xp_11_0 <= 0.870911214953271
 r_7: + xp_20_3 + xp_10_2 + xp_2_3 <= 0.899493243243243
 r_8: + xp_20_1 <= 0.870911214953271
 r_9: + xp_2_0 <= 0.8875
 r_10: 0 xp_0_0 <= 0.878255208333333
 r_11: + xp_1_3 <= 0.899493243243243
 r_12: 0 xp_0_0 <= 0.870911214953271
 r_13: 0 xp_0_0 <= 0.870911214953271
 r_14: + xp_1_4 <= 0.878255208333333
 r_15: + xp_3_3 <= 0.878255208333333
 r_16: + xp_13_2 <= 0.899493243243243
 r_17: + xp_9_1 <= 0.899493243243243
 r_18: + xp_19_1 <= 0.870911214953271
 r_19: + xp_14_1 <= 0.899493243243243
 r_20: + xp_1_2 <= 0.8875
 r_21: 0 xp_0_0 <= 0.878255208333333
 r_22: + xp_0_1 <= 0.878255208333333
 r_23: 0 xp_0_0 <= 0.870911214953271
 r_24: 0 xp_0_0 <= 0.870911214953271
 r_25: 0 xp_0_0 <= 0.878255208333333
 r_26: + xp_17_0 <= 0.878255208333333
 r_27: + xp_20_4 + xp_1_0 <= 0.8875
 r_28: 0 xp_0_0 <= 0.878255208333333
 r_29: + xp_17_1 + xp_14_3 + xp_10_4 <= 0.8875
 r_30: + xp_18_2 + xp_17_2 <= 0.878255208333333
 r_31: 0 xp_0_0 <= 0.899493243243243
 r_32: + xp_19_5 + xp_19_0 <= 0.870911214953271
 r_33: + xp_21_2 + xp_13_1 <= 0.8875
 r_34: + xp_13_0 <= 0.870911214953271
 r_35: + xp_13_2 + xp_3_3 <= 0.870911214953271
 r_36: + xp_21_1 + xp_2_4 <= 0.878255208333333
 r_37: + xp_21_3 <= 0.870911214953271
 r_38: 0 xp_0_0 <= 0.870911214953271
 r_39: + xp_21_0 + xp_3_1 <= 0.870911214953271
 r_40: 0 xp_0_0 <= 0.878255208333333
 r_41: 0 xp_0_0 <= 0.8875
 r_42: + xp_17_1 + xp_15_1 + xp_14_4 + xp_14_3 <= 0.8875
 r_43: + xp_1_4 <= 0.8875
 r_44: 0 xp_0_0 <= 0.878255208333333
 r_45: 0 xp_0_0 <= 0.8875
 r_46: 0 xp_0_0 <= 0.899493243243243
 r_47: + xp_19_4 + xp_6_0 <= 0.8875
 r_48: + xp_19_2 + xp_6_1 + xp_5_1 <= 0.878255208333333
 r_49: 0 xp_0_0 <= 0.878255208333333
 r_50: + xp_20_4 + xp_20_3 + xp_13_1 <= 0.8875
 r_51: + xp_21_2 <= 0.8875
 r_52: + xp_5_0 <= 0.8875
 r_53: + xp_6_2 <= 0.899493243243243
 r_54: + xp_10_3 + xp_5_1 + xp_2_4 + xp_1_4 <= 0.878255208333333
 r_55: + xp_7_0 <= 0.878255208333333
 r_56: + xp_19_3 + xp_19_2 + xp_6_2 + xp_6_1 <= 0.878255208333333
 r_57: 0 xp_0_0 <= 0.878255208333333
 r_58: + xp_17_2 + xp_15_2 + xp_8_0 <= 0.878255208333333
 r_59: + xp_20_2 + xp_16_0 <= 0.878255208333333
 r_60: + xp_21_1 <= 0.878255208333333
 r_61: + xp_0_1 <= 0.899493243243243
 r_62: + xp_19_4 + xp_19_2 + xp_1_1 <= 0.878255208333333
 r_63: + xp_19_3 + xp_18_1 <= 0.878255208333333
 r_64: + xp_14_0 <= 0.878255208333333
 r_65: + xp_20_5 + xp_19_1 + xp_14_1 <= 0.878255208333333
 r_66: + xp_19_0 + xp_18_2 + xp_14_3 <= 0.878255208333333
 r_67: + xp_14_4 + xp_10_1 + xp_2_2 <= 0.878255208333333
 r_68: + xp_19_5 + xp_18_0 + xp_14_2 <= 0.899493243243243
 r_69: 0 xp_0_0 <= 0.870911214953271
 r_70: 0 xp_0_0 <= 0.870911214953271
 r_71: + xp_15_0 + xp_14_2 <= 0.899493243243243
 r_72: 0 xp_0_0 <= 0.899493243243243
 r_73: + xp_19_5 + xp_3_4 <= 0.899493243243243
 r_74: + xp_15_1 + xp_10_2 + xp_2_3 <= 0.899493243243243
 r_75: + xp_20_3 + xp_1_3 <= 0.899493243243243
 r_76: + xp_18_0 + xp_15_2 + xp_6_2 <= 0.899493243243243
 r_77: + xp_4_0 <= 0.899493243243243
 r_78: + xp_3_0 + xp_1_0 <= 0.870911214953271
 r_79: + xp_3_4 + xp_0_0 <= 0.870911214953271
 r_80: + xp_2_0 + xp_1_4 + xp_1_3 <= 0.870911214953271
 r_81: + xp_9_0 + xp_3_2 + xp_2_3 + xp_2_1 <= 0.870911214953271
 r_82: + xp_20_1 + xp_9_1 + xp_1_2 + xp_0_1 <= 0.870911214953271
 r_83: + xp_12_0 + xp_3_3 + xp_3_1 + xp_2_4 <= 0.870911214953271
 r_84: + xp_2_2 + xp_1_1 <= 0.870911214953271

Bounds
 0 <= xp_0_0 <= 0.666666666666667
 0 <= xp_0_1 <= 0.166666666666667
 0 <= xp_1_0 <= 0.166666666666667
 0 <= xp_1_1 <= 0.416666666666667
 0 <= xp_1_2 <= 0.333333333333333
 0 <= xp_1_3 <= 0.166666666666667
 0 <= xp_1_4 <= 0.166666666666667
 0 <= xp_2_0 <= 0.5
 0 <= xp_2_1 <= 0.166666666666667
 0 <= xp_2_2 <= 0.333333333333333
 0 <= xp_2_3 <= 0.166666666666667
 0 <= xp_2_4 <= 0.0833333333333333
 0 <= xp_3_0 <= 0.833333333333333
 0 <= xp_3_1 <= 0.166666666666667
 0 <= xp_3_2 <= 0.166666666666667
 0 <= xp_3_3 <= 0.166666666666667
 0 <= xp_3_4 <= 0.333333333333333
 0 <= xp_4_0 <= 0.416666666666667
 0 <= xp_5_0 <= 0.666666666666667
 0 <= xp_5_1 <= 0.166666666666667
 0 <= xp_6_0 <= 0.5
 0 <= xp_6_1 <= 0.166666666666667
 0 <= xp_6_2 <= 0.166666666666667
 0 <= xp_7_0 <= 0.416666666666667
 0 <= xp_8_0 <= 0.416666666666667
 0 <= xp_9_0 <= 0.333333333333333
 0 <= xp_9_1 <= 0.0833333333333333
 0 <= xp_10_0 <= 0.583333333333333
 0 <= xp_10_1 <= 0.25
 0 <= xp_10_2 <= 0.166666666666667
 0 <= xp_10_3 <= 0.0833333333333333
 0 <= xp_10_4 <= 0.166666666666667
 0 <= xp_11_0 <= 0.833333333333333
 0 <= xp_12_0 <= 0.416666666666667
 0 <= xp_13_0 <= 0.833333333333333
 0 <= xp_13_1 <= 0.333333333333333
 0 <= xp_13_2 <= 0.5
 0 <= xp_14_0 <= 0.916666666666667
 0 <= xp_14_1 <= 0.5
 0 <= xp_14_2 <= 0.416666666666667
 0 <= xp_14_3 <= 0.0833333333333333
 0 <= xp_14_4 <= 0.166666666666667
 0 <= xp_15_0 <= 0.5
 0 <= xp_15_1 <= 0.166666666666667
 0 <= xp_15_2 <= 0.166666666666667
 0 <= xp_16_0 <= 0.416666666666667
 0 <= xp_17_0 <= 0.833333333333333
 0 <= xp_17_1 <= 0.333333333333333
 0 <= xp_17_2 <= 0.0833333333333333
 0 <= xp_18_0 <= 0.0833333333333333
 0 <= xp_18_1 <= 0.25
 0 <= xp_18_2 <= 0.0833333333333333
 0 <= xp_19_0 <= 0.5
 0 <= xp_19_1 <= 0.25
 0 <= xp_19_2 <= 0.0833333333333333
 0 <= xp_19_3 <= 0.0833333333333333
 0 <= xp_19_4 <= 0.166666666666667
 0 <= xp_19_5 <= 0.166666666666667
 0 <= xp_20_0 <= 1
 0 <= xp_20_1 <= 0.25
 0 <= xp_20_2 <= 0.333333333333333
 0 <= xp_20_3 <= 0.25
 0 <= xp_20_4 <= 0.166666666666667
 0 <= xp_20_5 <= 0.0833333333333333
 0 <= xp_21_0 <= 0.5
 0 <= xp_21_1 <= 0.333333333333333
 0 <= xp_21_2 <= 0.333333333333333
 0 <= xp_21_3 <= 0.0833333333333333

End
